Minimize
  x_medium_sized_factory + x_small_factory
Subject To
  c1: 50 x_medium_sized_factory + 35 x_small_factory >= 250
  c2: 3 x_medium_sized_factory + 2 x_small_factory <= 16
Integer
  x_medium_sized_factory x_small_factory
End